c This is a CNF SAT formula in the DIMACS CNF format,
c produced with the bc2cnf translator by Tommi Junttila;
c see http://users.ics.aalto.fi/tjunttil/circuits/index.html
c Z <-> 1
c P6_0 <-> 4
c G4_3 <-> 9
c P5_1 <-> 10
c P4_3 <-> 11
c P4_2 <-> 14
c G4_2 <-> 15
c G4_1 <-> 18
c P5_0 <-> 19
c P4_1 <-> 20
c P3_2 <-> 25
c G3_2 <-> 26
c G3_1 <-> 29
c P4_0 <-> 30
c P3_1 <-> 31
c G2_1 <-> 36
c P3_0 <-> 37
c P2_1 <-> 38
c P2_0 <-> 45
c S3 <-> 48
c G1_3 <-> 50
c P1_3 <-> 51
c S2 <-> 52
c G1_2 <-> 54
c P1_2 <-> 55
c S1 <-> 56
c G1_1 <-> 57
c P1_1 <-> 58
c S_ripple0 <-> 59
c S0 <-> 59
c G1_0 <-> 60
c P1_0 <-> 61
c C_ripple4 <-> 62
c S_ripple4 <-> 66
c XB4 <-> 67
c A4 <-> 68
c C_ripple3 <-> 69
c S_ripple3 <-> 71
c A3 <-> 72
c C_ripple2 <-> 73
c S_ripple2 <-> 75
c A2 <-> 76
c C_ripple1 <-> 77
c S_ripple1 <-> 80
c A1 <-> 81
c C_ripple0 <-> 82
c A0 <-> 85
c XB3 <-> 86
c B3 <-> 87
c XB2 <-> 88
c B2 <-> 89
c XB1 <-> 90
c B1 <-> 91
c XB0 <-> 92
c B0 <-> 93
c C5_0 <-> 94
c C3_0 <-> 94
c C0 <-> 94
c C2_0 <-> 94
c C4_0 <-> 94
c OP <-> 94
p cnf 94 232
1 75 -52 0
1 -75 52 0
-1 75 52 0
-1 -75 -52 0
1 0
-2 -3 0
-2 7 0
2 -7 3 0
-3 10 0
-3 -16 0
3 16 -10 0
-4 10 0
-4 19 0
4 -19 -10 0
-5 -6 0
-5 16 0
5 -16 6 0
-6 19 0
-6 94 0
6 -94 -19 0
-7 -8 0
-7 -9 0
7 9 8 0
-8 11 0
-8 15 0
8 -15 -11 0
-10 11 0
-10 14 0
10 -14 -11 0
-12 -13 0
-12 -15 0
12 15 13 0
-13 -5 0
-13 14 0
13 -14 5 0
-16 -17 0
-16 -18 0
16 18 17 0
-17 20 0
-17 -27 0
17 27 -20 0
-19 20 0
-19 30 0
19 -30 -20 0
-21 -22 0
-21 27 0
21 -27 22 0
-22 30 0
-22 94 0
22 -94 -30 0
-23 -24 0
-23 -26 0
23 26 24 0
-24 -21 0
-24 25 0
24 -25 21 0
-27 -28 0
-27 -29 0
27 29 28 0
-28 31 0
-28 -34 0
28 34 -31 0
-30 31 0
-30 37 0
30 -37 -31 0
-32 -33 0
-32 34 0
32 -34 33 0
-33 37 0
-33 94 0
33 -94 -37 0
-34 -35 0
-34 -36 0
34 36 35 0
-35 38 0
-35 -43 0
35 43 -38 0
-37 38 0
-37 45 0
37 -45 -38 0
-39 -40 0
-39 43 0
39 -43 40 0
-40 45 0
-40 94 0
40 -94 -45 0
-41 -42 0
-41 -54 0
41 54 42 0
-42 -39 0
-42 55 0
42 -55 39 0
-43 -44 0
-43 -57 0
43 57 44 0
-44 58 0
-44 60 0
44 -60 -58 0
-45 58 0
-45 61 0
45 -61 -58 0
-46 -47 0
-46 -60 0
46 60 47 0
-47 61 0
-47 94 0
47 -94 -61 0
48 49 41 0
48 -49 -41 0
-48 49 -41 0
-48 -49 41 0
49 86 -72 0
49 -86 72 0
-49 86 72 0
-49 -86 -72 0
-50 72 0
-50 86 0
50 -86 -72 0
51 -72 0
51 -86 0
-51 86 72 0
52 53 39 0
52 -53 -39 0
-52 53 -39 0
-52 -53 39 0
53 88 -76 0
53 -88 76 0
-53 88 76 0
-53 -88 -76 0
-54 76 0
-54 88 0
54 -88 -76 0
55 -76 0
55 -88 0
-55 88 76 0
56 79 46 0
56 -79 -46 0
-56 79 -46 0
-56 -79 46 0
-57 81 0
-57 90 0
57 -90 -81 0
58 -81 0
58 -90 0
-58 90 81 0
59 94 -84 0
59 -94 84 0
-59 94 84 0
-59 -94 -84 0
-60 85 0
-60 92 0
60 -92 -85 0
61 -85 0
61 -92 0
-61 92 85 0
62 -63 0
62 -64 0
-62 64 63 0
-63 67 0
-63 68 0
63 -68 -67 0
-64 65 0
-64 69 0
64 -69 -65 0
65 68 -67 0
65 -68 67 0
-65 68 67 0
-65 -68 -67 0
66 69 -65 0
66 -69 65 0
-66 69 65 0
-66 -69 -65 0
69 -50 0
69 -70 0
-69 70 50 0
-70 49 0
-70 73 0
70 -73 -49 0
71 73 -49 0
71 -73 49 0
-71 73 49 0
-71 -73 -49 0
73 -54 0
73 -74 0
-73 74 54 0
-74 53 0
-74 77 0
74 -77 -53 0
75 77 -53 0
75 -77 53 0
-75 77 53 0
-75 -77 -53 0
77 -57 0
77 -78 0
-77 78 57 0
-78 79 0
-78 82 0
78 -82 -79 0
79 90 -81 0
79 -90 81 0
-79 90 81 0
-79 -90 -81 0
80 82 -79 0
80 -82 79 0
-80 82 79 0
-80 -82 -79 0
82 -60 0
82 -83 0
-82 83 60 0
-83 84 0
-83 94 0
83 -94 -84 0
84 92 -85 0
84 -92 85 0
-84 92 85 0
-84 -92 -85 0
86 94 -87 0
86 -94 87 0
-86 94 87 0
-86 -94 -87 0
88 94 -89 0
88 -94 89 0
-88 94 89 0
-88 -94 -89 0
90 94 -91 0
90 -94 91 0
-90 94 91 0
-90 -94 -91 0
92 94 -93 0
92 -94 93 0
-92 94 93 0
-92 -94 -93 0